Traveling Salesman Problem/TSP_generados/Aleatorio1620391110_14.tsp
NAME: Aleatorio1620391110_14.tsp
COMMENT: Randomly generated scenario
TYPE: TSP
DIMENSION: 14
EDGE_WEIGHT_TYPE: ATT
NODE_COORD_SECTION
1 29.15 41.06
2 43.09 35.05
3 3.4 20.96
4 2.77 48.26
5 10.07 20.44
6 0.74 20.42
7 4.46 11.39
8 14.41 44.25
9 41.16 25.1
10 49.45 39.85
11 47.41 48.31
12 44.15 0.5
13 1.24 15.12
14 29.62 10.48
