Traveling Salesman Problem/TSP_generados/Aleatorio1620391110_14.opt.tour
NAME: Aleatorio1620391110_14.opt.tour
COMMENT: Optimal solution for Aleatorio1620391110_14 (189.11487431924166)
TYPE: TOUR
DIMENSION: 14
TOUR_SECTION
1 8 4 3 6 13 7 5 14 12 9 2 10 11
-1
EOF
